122 24 113 119 110 133 174 163 30 59 44 19 196 188 51 194 20 140 186 149 41 35 171 74 61 187 85 68 43 81 76 1 15 0 124 47 77 93 84 198 139 98 151 162 16 181 101 141 10 183 38 63 173 126 67 49 109 96 32 11 52 115 107 130 147 106 57 132 161 18 199 33 156 112 69 127 75 79 8 164 138 22 118 42 108 80 31 169 185 167 117 97 45 66 166 144 94 58 137 159 4 56 165 14 168 131 121 12 143 50 48 102 111 27 150 13 90 158 120 6 3 197 91 64 21 7 23 195 62 172 123 148 71 53 175 89 100 157 95 170 155 34 92 60 184 114 116 192 145 176 152 25 88 46 99 82 9 87 135 65 78 2 146 191 136 142 28 154 39 72 86 73 134 5 26 29 189 104 83 125 54 36 103 160 70 193 179 129 128 153 180 17 178 40 55 105 37 182 190 177 

